NAME : portcgen-27-2
COMMENT : portcgen N=27, seed=2
TYPE : TSP
DIMENSION : 27
EDGE_WEIGHT_TYPE : EUC_2D
NODE_COORD_SECTION
1 284750 80016
2 486183 129646
3 -27978 -48609
4 -200237 -116003
5 -101572 -132508
6 231056 -278422
7 200775 153828
8 -366195 -86208
9 257883 -63171
10 -69414 215008
11 65326 29109
12 184666 312002
13 -169633 153133
14 -23777 -196552
15 24869 -35058
16 24673 -8064
17 -75717 162936
18 74378 -312271
19 432221 -68304
20 -229149 212589
21 -175627 -173640
22 188142 244414
23 77614 17460
24 -204090 208574
25 91816 -37839
26 148333 225293
27 189998 69798
